
(set-logic QF_BV)
(declare-fun x () (_ BitVec 53))
(declare-fun y () (_ BitVec 53))
(define-fun mins () (_ BitVec 53) (_ bv4503599627370496 53))
(define-fun negative ((a (_ BitVec 53))) Bool (bvuge a (_ bv4503599627370496 53)))
(define-fun abs ((a (_ BitVec 53))) (_ BitVec 53) (ite (negative a) (bvneg a) a))
(define-fun u ((a (_ BitVec 53)) (b (_ BitVec 53))) (_ BitVec 53) (bvurem (abs a) (abs b)))
(define-fun neg_u ((a (_ BitVec 53)) (b (_ BitVec 53))) (_ BitVec 53) (bvneg (u a b)))
(define-fun cond_0 () Bool (= (u x y) (_ bv0 53)))
(define-fun cond_1 () Bool (and (not (negative x)) (not (negative y))))
(define-fun cond_2 () Bool (and (negative x) (not (negative y))))
(define-fun cond_3 () Bool (and (not (negative x)) (negative y)))
(define-fun left () (_ BitVec 53) (bvsmod x y))
(define-fun right () (_ BitVec 53) (ite cond_0 (u x y) (ite cond_1 (u x y) (ite cond_2 (bvadd (neg_u x y) y) (ite cond_3 (bvadd (u x y) y) (neg_u x y))))))
(assert (distinct left right))
(check-sat)
